37 37
9 36
11 9
3 8
1 15
7 14
8 31
4 4
7 1
12 13
15 17
14 37
1 35
18 25
4 27
2 24
5 11
16 19
10 32
10 21
5 2
11 34
15 18
16 26
14 30
3 3
1 12
18 6
13 16
17 20
13 7
17 5
2 29
6 23
6 22
9 10
12 33
8 28
